Cost: 687
0-14-24-23-7-48-0
0-12-17-4-18-0
0-6-27-1-32-0
0-37-44-45-33-15-0
0-20-35-36-3-0
0-46-5-49-9-38-0
0-8-26-31-28-22-0
0-25-13-41-19-47-0
0-10-30-34-50-11-0
0-2-29-21-16-0
Cost: 684
0-5-10-33-15-0
0-3-36-35-20-0
0-2-29-21-34-30-0
0-8-26-31-28-22-0
0-47-17-37-12-0
0-6-24-23-7-48-0
0-4-41-19-42-44-0
0-14-25-13-18-0
0-38-49-9-50-16-0
0-46-11-32-1-27-0
Cost: 687
0-14-24-23-7-48-0
0-12-17-4-18-0
0-6-27-1-32-0
0-37-44-45-33-15-0
0-20-35-36-3-0
0-46-5-49-9-38-0
0-8-26-31-28-22-0
0-25-13-41-19-47-0
0-10-30-34-50-11-0
0-2-29-21-16-0
Cost: 684
0-6-24-23-7-48-0
0-46-11-32-1-27-0
0-5-10-33-15-0
0-12-37-17-47-0
0-22-28-31-26-8-0
0-2-29-21-34-30-0
0-3-36-35-20-0
0-44-42-19-41-4-0
0-14-25-13-18-0
0-38-49-9-50-16-0
Cost: 684
0-44-42-19-41-4-0
0-6-24-23-7-48-0
0-14-25-13-18-0
0-22-28-31-26-8-0
0-30-34-21-29-2-0
0-47-17-37-12-0
0-20-35-36-3-0
0-5-10-33-15-0
0-46-11-32-1-27-0
0-38-49-9-50-16-0
Cost: 684
0-3-36-35-20-0
0-22-28-31-26-8-0
0-48-7-23-24-6-0
0-46-11-32-1-27-0
0-14-25-13-18-0
0-15-33-10-5-0
0-16-50-9-49-38-0
0-12-37-17-47-0
0-30-34-21-29-2-0
0-4-41-19-42-44-0
Cost: 684
0-6-24-23-7-48-0
0-2-29-21-34-30-0
0-46-11-32-1-27-0
0-44-42-19-41-4-0
0-14-25-13-18-0
0-22-28-31-26-8-0
0-15-33-10-5-0
0-47-17-37-12-0
0-20-35-36-3-0
0-16-50-9-49-38-0
Cost: 684
0-6-24-23-7-48-0
0-2-29-21-34-30-0
0-46-11-32-1-27-0
0-44-42-19-41-4-0
0-14-25-13-18-0
0-22-28-31-26-8-0
0-15-33-10-5-0
0-47-17-37-12-0
0-20-35-36-3-0
0-16-50-9-49-38-0
Cost: 684
0-6-24-23-7-48-0
0-2-29-21-34-30-0
0-46-11-32-1-27-0
0-44-42-19-41-4-0
0-14-25-13-18-0
0-22-28-31-26-8-0
0-15-33-10-5-0
0-47-17-37-12-0
0-20-35-36-3-0
0-16-50-9-49-38-0
Cost: 684
0-6-24-23-7-48-0
0-2-29-21-34-30-0
0-46-11-32-1-27-0
0-44-42-19-41-4-0
0-14-25-13-18-0
0-22-28-31-26-8-0
0-15-33-10-5-0
0-47-17-37-12-0
0-20-35-36-3-0
0-16-50-9-49-38-0
Cost: 684
0-6-24-23-7-48-0
0-2-29-21-34-30-0
0-46-11-32-1-27-0
0-44-42-19-41-4-0
0-14-25-13-18-0
0-22-28-31-26-8-0
0-15-33-10-5-0
0-47-17-37-12-0
0-20-35-36-3-0
0-16-50-9-49-38-0
Cost: 684
0-6-24-23-7-48-0
0-2-29-21-34-30-0
0-46-11-32-1-27-0
0-44-42-19-41-4-0
0-14-25-13-18-0
0-22-28-31-26-8-0
0-15-33-10-5-0
0-47-17-37-12-0
0-20-35-36-3-0
0-16-50-9-49-38-0
Cost: 684
0-6-24-23-7-48-0
0-2-29-21-34-30-0
0-46-11-32-1-27-0
0-44-42-19-41-4-0
0-14-25-13-18-0
0-22-28-31-26-8-0
0-15-33-10-5-0
0-47-17-37-12-0
0-20-35-36-3-0
0-16-50-9-49-38-0
Cost: 684
0-47-17-37-12-0
0-6-24-23-7-48-0
0-38-49-9-50-16-0
0-15-33-10-5-0
0-20-35-36-3-0
0-22-28-31-26-8-0
0-2-29-21-34-30-0
0-44-42-19-41-4-0
0-46-11-32-1-27-0
0-18-13-25-14-0
Cost: 684
0-6-24-23-7-48-0
0-2-29-21-34-30-0
0-46-11-32-1-27-0
0-44-42-19-41-4-0
0-14-25-13-18-0
0-22-28-31-26-8-0
0-15-33-10-5-0
0-47-17-37-12-0
0-20-35-36-3-0
0-16-50-9-49-38-0
Cost: 684
0-6-24-23-7-48-0
0-2-29-21-34-30-0
0-46-11-32-1-27-0
0-44-42-19-41-4-0
0-14-25-13-18-0
0-22-28-31-26-8-0
0-15-33-10-5-0
0-47-17-37-12-0
0-20-35-36-3-0
0-16-50-9-49-38-0
Cost: 684
0-8-26-31-28-22-0
0-47-17-37-12-0
0-27-1-32-11-46-0
0-20-35-36-3-0
0-4-41-19-42-44-0
0-6-24-23-7-48-0
0-2-29-21-34-30-0
0-5-10-33-15-0
0-38-49-9-50-16-0
0-18-13-25-14-0
Cost: 684
0-5-10-33-15-0
0-4-41-19-42-44-0
0-47-17-37-12-0
0-18-13-25-14-0
0-16-50-9-49-38-0
0-27-1-32-11-46-0
0-2-29-21-34-30-0
0-3-36-35-20-0
0-6-24-23-7-48-0
0-22-28-31-26-8-0
Cost: 684
0-15-33-10-5-0
0-47-17-37-12-0
0-4-41-19-42-44-0
0-18-13-25-14-0
0-20-35-36-3-0
0-6-24-23-7-48-0
0-16-50-9-49-38-0
0-27-1-32-11-46-0
0-22-28-31-26-8-0
0-2-29-21-34-30-0
Cost: 684
0-15-33-10-5-0
0-47-17-37-12-0
0-4-41-19-42-44-0
0-18-13-25-14-0
0-20-35-36-3-0
0-6-24-23-7-48-0
0-16-50-9-49-38-0
0-27-1-32-11-46-0
0-22-28-31-26-8-0
0-2-29-21-34-30-0
Cost: 684
0-48-7-23-24-6-0
0-44-42-19-41-4-0
0-2-29-21-34-30-0
0-22-28-31-26-8-0
0-15-33-10-5-0
0-18-13-25-14-0
0-47-17-37-12-0
0-27-1-32-11-46-0
0-16-50-9-49-38-0
0-20-35-36-3-0
Cost: 687
0-6-27-1-32-0
0-9-50-34-30-10-0
0-33-45-15-44-37-0
0-12-17-4-18-0
0-47-19-41-13-25-0
0-22-28-31-26-8-0
0-48-7-23-24-14-0
0-11-38-49-5-46-0
0-2-29-21-16-0
0-3-36-35-20-0
Cost: 687
0-47-19-41-13-25-0
0-37-15-33-45-44-0
0-11-50-34-30-10-0
0-6-27-1-32-0
0-20-35-36-3-0
0-48-7-23-24-14-0
0-16-21-29-2-0
0-38-9-49-5-46-0
0-18-4-17-12-0
0-22-28-31-26-8-0
Cost: 687
0-6-27-1-32-0
0-9-50-34-30-10-0
0-33-45-15-44-37-0
0-12-17-4-18-0
0-47-19-41-13-25-0
0-22-28-31-26-8-0
0-48-7-23-24-14-0
0-11-38-49-5-46-0
0-2-29-21-16-0
0-3-36-35-20-0
Cost: 684
0-5-10-33-15-0
0-4-41-19-42-44-0
0-47-17-37-12-0
0-18-13-25-14-0
0-16-50-9-49-38-0
0-27-1-32-11-46-0
0-2-29-21-34-30-0
0-3-36-35-20-0
0-6-24-23-7-48-0
0-22-28-31-26-8-0
Cost: 684
0-15-33-10-5-0
0-47-17-37-12-0
0-4-41-19-42-44-0
0-18-13-25-14-0
0-20-35-36-3-0
0-6-24-23-7-48-0
0-16-50-9-49-38-0
0-27-1-32-11-46-0
0-22-28-31-26-8-0
0-2-29-21-34-30-0
Cost: 684
0-14-25-13-18-0
0-12-37-17-47-0
0-38-49-9-50-16-0
0-30-34-21-29-2-0
0-20-35-36-3-0
0-5-10-33-15-0
0-6-24-23-7-48-0
0-27-1-32-11-46-0
0-8-26-31-28-22-0
0-4-41-19-42-44-0
Cost: 0
Cost: 689
0-10-30-34-50-9-0
0-20-35-36-3-0
0-32-1-22-28-31-0
0-2-29-21-16-0
0-47-4-17-12-0
0-37-15-33-45-44-0
0-14-25-24-23-6-0
0-27-8-26-7-48-0
0-46-5-49-38-11-0
0-19-41-13-18-0
Cost: 684
0-27-1-32-11-46-0
0-12-37-17-47-0
0-18-13-25-14-0
0-8-26-31-28-22-0
0-5-10-33-15-0
0-30-34-21-29-2-0
0-38-49-9-50-16-0
0-20-35-36-3-0
0-4-41-19-42-44-0
0-6-24-23-7-48-0
Cost: 684
0-20-35-36-3-0
0-15-33-10-5-0
0-22-28-31-26-8-0
0-14-25-13-18-0
0-27-1-32-11-46-0
0-30-34-21-29-2-0
0-6-24-23-7-48-0
0-4-41-19-42-44-0
0-47-17-37-12-0
0-38-49-9-50-16-0
